#######################################
### Exact MIP solver for the HHCRSP ###
#######################################
-- Instance file: new-instances/HHCRSP_400_80_6_1.0_R_R.txt
-- Max threads: 4
-- Time limit: 999999 seconds
-- Use initial solution: No
Trivial flow violations prevented generating 2788240 variables.
Version identifier: 20.1.0.0 | 2020-11-10 | 9bedb6d68
CPXPARAM_Threads                                 4
CPXPARAM_Emphasis_Memory                         1
CPXPARAM_TimeLimit                               999999
Tried aggregator 1 time.
Presolve has eliminated 88578 rows and 21516 columns...
LP Presolve eliminated 88578 rows and 21516 columns.
Reduced LP has 3372554 rows, 3192938 columns, and 101452745 nonzeros.
Presolve time = 112.64 sec. (21335.63 ticks)
Compression time = 26.02 sec. (6.37 ticks)
Compression reduced 1448.08 MB A matrix to 435.04 MB
Symmetry aggregator did 5883222 additional substitutions.
Elapsed time = 140.50 sec. (22180.02 ticks, 1 iterations)

Iteration log . . .
Iteration:     1   Dual objective     =             0.000000

Dual crossover.
  Dual:  Fixing 3121 variables.
     3120 DMoves:  Infeasibility  4.33392211e-12  Objective  4.66666667e+02
        0 DMoves:  Infeasibility  1.07897025e-12  Objective  4.66666667e+02
  Dual:  Pushed 67, exchanged 3054.
  Primal:  Fixing 3038 variables.
     3037 PMoves:  Infeasibility  6.24500451e-17  Objective  4.66666667e+02
        0 PMoves:  Infeasibility  6.24500451e-17  Objective  4.66666667e+02
  Primal:  Pushed 2839, exchanged 199.

Solution status from MIP model:
-- Processing time: 190.339 sec.
-- Memory used: 2197.65 MB
-- Best bound: inf
-- Obj value: 466.667
-- Gap: inf%
-- Total distance: 1400
-- Total tardiness: 0
-- Largest tardiness: 0
